100 8
883 689
662 801
704 579
699 493
687 736
13 417
645 558
574 524
542 567
641 624
395 706
580 533
565 695
420 869
522 531
270 261
507 775
230 993
825 701
814 525
612 745
214 841
191 943
858 706
550 737
591 626
199 976
757 625
466 513
41 490
439 415
452 813
297 166
623 539
373 362
731 581
629 617
472 785
627 523
710 834
457 773
452 435
487 384
391 913
461 417
553 705
603 569
603 616
671 900
598 727
130 207
449 473
479 230
363 940
429 835
327 357
200 359
172 344
621 530
563 744
495 418
241 936
678 783
515 207
506 377
847 665
410 418
435 819
474 798
663 811
373 347
803 563
65 519
165 367
511 139
748 556
261 787
388 228
476 840
799 749
289 787
620 69
492 751
49 494
523 828
624 672
565 518
350 483
338 857
101 379
310 192
511 404
468 747
526 384
493 836
434 514
547 332
449 241
386 549
369 516
